p edge 87 406
e 1 20 4
e 1 14 8
e 1 4 8
e 1 79 5
e 1 66 1
e 1 83 6
e 2 32 10
e 2 55 1
e 2 74 9
e 2 46 4
e 2 7 8
e 2 4 3
e 2 34 6
e 2 72 1
e 2 29 9
e 2 23 4
e 2 43 5
e 2 42 8
e 2 81 9
e 2 53 2
e 2 19 7
e 2 39 10
e 2 86 10
e 2 16 9
e 2 56 4
e 2 87 2
e 2 33 5
e 2 58 1
e 2 76 4
e 2 67 1
e 2 35 3
e 2 54 3
e 2 83 3
e 2 79 7
e 2 11 4
e 2 66 5
e 2 80 10
e 3 22 2
e 3 23 3
e 3 72 3
e 3 58 7
e 3 87 6
e 3 83 1
e 3 33 5
e 4 12 9
e 4 87 3
e 4 19 8
e 4 74 4
e 4 32 8
e 4 55 8
e 4 46 10
e 4 34 9
e 4 21 7
e 4 18 3
e 4 59 5
e 4 49 4
e 4 14 10
e 4 20 2
e 4 83 10
e 4 79 1
e 4 66 6
e 5 31 2
e 5 34 3
e 5 83 6
e 5 78 4
e 6 47 5
e 6 83 8
e 7 35 9
e 7 19 1
e 7 87 1
e 7 33 8
e 7 34 1
e 7 83 10
e 7 58 6
e 8 71 10
e 8 49 1
e 8 83 9
e 9 11 8
e 9 76 4
e 9 14 8
e 9 40 2
e 9 83 9
e 9 57 5
e 10 42 4
e 10 83 10
e 11 40 5
e 11 14 5
e 11 67 1
e 11 83 7
e 11 76 10
e 12 74 1
e 12 32 2
e 12 46 7
e 12 34 9
e 12 14 7
e 12 21 2
e 12 20 4
e 12 68 6
e 12 36 4
e 12 52 8
e 12 83 6
e 13 43 10
e 13 27 6
e 13 85 7
e 13 60 5
e 13 19 1
e 14 74 5
e 14 32 3
e 14 46 3
e 14 34 6
e 14 21 5
e 14 49 9
e 14 40 2
e 14 76 2
e 14 20 4
e 14 83 9
e 14 79 3
e 14 66 10
e 15 61 3
e 15 49 3
e 15 83 4
e 16 67 10
e 16 77 3
e 16 63 4
e 16 22 8
e 16 42 10
e 16 76 1
e 16 66 2
e 16 83 2
e 17 37 7
e 17 84 3
e 17 19 2
e 17 87 1
e 17 58 3
e 17 45 10
e 17 73 3
e 17 50 7
e 17 83 7
e 18 71 5
e 18 59 7
e 18 83 3
e 18 49 2
e 19 51 2
e 19 23 10
e 19 72 7
e 19 55 10
e 19 42 1
e 19 81 6
e 19 53 4
e 19 43 4
e 19 27 7
e 19 85 2
e 19 60 8
e 19 32 10
e 19 74 7
e 19 35 8
e 19 66 6
e 19 71 5
e 19 46 4
e 19 34 4
e 19 37 7
e 19 84 4
e 19 87 3
e 19 58 3
e 19 45 8
e 19 73 2
e 19 50 1
e 19 68 7
e 19 69 7
e 19 52 10
e 19 49 5
e 19 83 7
e 20 74 10
e 20 32 6
e 20 46 10
e 20 34 8
e 20 87 4
e 20 59 8
e 20 71 8
e 20 21 10
e 20 49 5
e 20 83 8
e 20 79 9
e 20 66 7
e 21 74 1
e 21 32 8
e 21 46 1
e 21 34 4
e 21 66 9
e 21 83 8
e 21 79 8
e 22 77 4
e 22 63 8
e 22 42 9
e 22 83 3
e 23 43 10
e 23 35 1
e 23 87 3
e 23 29 3
e 23 67 6
e 23 72 3
e 23 83 5
e 23 33 1
e 24 67 2
e 24 66 2
e 24 80 7
e 24 83 6
e 25 83 9
e 26 83 4
e 27 43 10
e 27 85 3
e 27 60 2
e 28 51 4
e 28 69 1
e 28 68 10
e 28 83 2
e 29 35 1
e 29 87 3
e 29 33 9
e 29 72 7
e 29 83 8
e 29 67 6
e 30 39 5
e 30 83 3
e 31 34 9
e 31 67 4
e 31 44 7
e 31 76 1
e 31 83 2
e 32 66 3
e 32 87 10
e 32 70 2
e 32 46 9
e 32 74 2
e 32 55 3
e 32 34 2
e 32 83 6
e 33 67 10
e 33 58 1
e 33 72 5
e 33 87 3
e 33 83 8
e 34 87 5
e 34 35 10
e 34 71 9
e 34 58 9
e 34 66 2
e 34 70 7
e 34 46 8
e 34 74 6
e 34 55 7
e 34 83 5
e 35 87 4
e 35 58 7
e 35 86 6
e 35 66 4
e 35 72 10
e 35 56 6
e 35 76 1
e 35 67 4
e 35 54 3
e 35 83 9
e 36 52 4
e 36 83 8
e 37 84 6
e 37 87 5
e 37 58 4
e 37 45 1
e 37 73 3
e 37 50 7
e 37 83 5
e 38 83 7
e 39 66 6
e 39 83 9
e 40 76 6
e 40 83 6
e 40 57 6
e 41 83 8
e 42 43 5
e 42 66 9
e 42 87 2
e 42 81 7
e 42 53 6
e 42 77 4
e 42 63 3
e 42 67 6
e 42 83 6
e 43 72 2
e 43 81 3
e 43 53 6
e 43 66 9
e 43 87 3
e 43 83 2
e 43 85 7
e 43 60 4
e 44 76 2
e 44 83 9
e 45 84 10
e 45 87 10
e 45 58 10
e 45 73 5
e 45 50 8
e 45 83 8
e 46 66 10
e 46 87 9
e 46 71 9
e 46 70 3
e 46 74 6
e 46 55 4
e 46 83 8
e 47 83 10
e 48 83 7
e 49 61 1
e 49 66 3
e 49 71 3
e 49 59 9
e 49 79 1
e 49 68 3
e 49 69 8
e 49 52 4
e 49 83 1
e 50 84 10
e 50 87 4
e 50 58 8
e 50 73 2
e 50 83 2
e 51 85 2
e 51 60 6
e 51 69 7
e 51 68 7
e 51 83 3
e 52 68 6
e 52 69 5
e 52 83 1
e 53 66 2
e 53 87 1
e 53 83 3
e 53 81 8
e 54 76 6
e 54 67 4
e 54 83 5
e 55 66 9
e 55 87 8
e 55 70 6
e 55 74 10
e 55 83 7
e 56 83 4
e 57 83 7
e 58 71 1
e 58 69 8
e 58 72 1
e 58 84 10
e 58 73 2
e 58 87 7
e 58 83 6
e 59 71 3
e 59 83 5
e 60 85 7
e 61 83 10
e 62 83 6
e 63 77 1
e 63 83 3
e 64 83 9
e 65 83 10
e 66 74 8
e 66 81 5
e 66 87 3
e 66 86 2
e 66 67 8
e 66 76 4
e 66 83 10
e 66 80 10
e 66 79 7
e 67 87 8
e 67 72 2
e 67 76 9
e 67 80 4
e 67 83 6
e 68 69 7
e 68 83 9
e 69 71 3
e 69 83 2
e 70 74 3
e 70 83 5
e 71 83 7
e 72 87 10
e 72 83 2
e 73 84 10
e 73 87 9
e 73 83 9
e 74 87 7
e 74 83 8
e 75 83 4
e 76 80 1
e 76 83 7
e 77 83 1
e 78 83 10
e 79 83 6
e 80 83 1
e 81 87 2
e 81 83 3
e 82 83 4
e 83 84 4
e 83 86 2
e 83 87 10
e 84 87 4